results_rootrelaxation/bin018_060_005.srr.sol
solution status: optimal solution found
objective value:                                    0
_var2739_                           0.113523810264955 	(obj:0)
_var2742_                           0.118298394603204 	(obj:0)
_var2744_                           0.094135325959514 	(obj:0)
_var2751_                         0.00666625668607665 	(obj:0)
_var2753_                           0.361080823302461 	(obj:0)
_var2755_                           0.161750951090295 	(obj:0)
_var2757_                           0.206070002754802 	(obj:0)
_var2773_                           0.016568361437801 	(obj:0)
_var2774_                          0.0817152171059471 	(obj:0)
_var2776_                           0.322298788134249 	(obj:0)
_var2778_                           0.288294750206941 	(obj:0)
_var2779_                           0.144021421236244 	(obj:0)
_var2784_                            0.18791296035771 	(obj:0)
_var2786_                          0.0339442942867912 	(obj:0)
_var2806_                          0.0141915522090088 	(obj:0)
_var2807_                           0.140647932321364 	(obj:0)
_var2810_                           0.306912369963042 	(obj:0)
_var2811_                          0.0526875177955038 	(obj:0)
_var2815_                           0.230125065588517 	(obj:0)
_var2829_                           0.231213486521014 	(obj:0)
_var2836_                           0.221788963746877 	(obj:0)
_var2851_                           0.292061948565155 	(obj:0)
_var2859_                          0.0207680668504941 	(obj:0)
_var2869_                           0.211306424720263 	(obj:0)
_var2874_                           0.031825391201616 	(obj:0)
_var2877_                          0.0815837498392708 	(obj:0)
_var2887_                           0.013638506145365 	(obj:0)
_var2894_                            0.19199267559293 	(obj:0)
_var2896_                          0.0321954185965391 	(obj:0)
_var2898_                           0.216586642558439 	(obj:0)
_var2905_                           0.134153486615585 	(obj:0)
_var2908_                           0.013900406774271 	(obj:0)
_var2909_                           0.158516880720635 	(obj:0)
_var2910_                          0.0104395269901656 	(obj:0)
_var2913_                          0.0034585352399595 	(obj:0)
_var2917_                            0.10866418572149 	(obj:0)
_var2919_                           0.224731326218811 	(obj:0)
_var2921_                           0.195882448925805 	(obj:0)
_var2925_                          0.0154320360488669 	(obj:0)
_var2927_                           0.211206278781585 	(obj:0)
_var2929_                         0.00442106305738674 	(obj:0)
_var2930_                           0.155032788754931 	(obj:0)
_var2931_                          0.0487005987543057 	(obj:0)
_var2933_                          0.0982500432759948 	(obj:0)
_var2935_                           0.332263147060229 	(obj:0)
_var2937_                           0.095277506075714 	(obj:0)
_var2939_                         0.00772609046711928 	(obj:0)
_var2941_                           0.344736125007682 	(obj:0)
_var2943_                           0.247659628063146 	(obj:0)
_var2946_                          0.0752209692669557 	(obj:0)
_var2947_                           0.124519326962156 	(obj:0)
_var2949_                          0.0129600442244094 	(obj:0)
_var2950_                           0.283727145814899 	(obj:0)
_var2952_                          0.0357881095351512 	(obj:0)
_var2954_                          0.0326414554778577 	(obj:0)
_var2962_                          0.0584144369547012 	(obj:0)
_var2964_                          0.0046352822264227 	(obj:0)
_var2966_                           0.150513067808368 	(obj:0)
_var2967_                           0.183562827831614 	(obj:0)
_var2968_                             0.2805226164241 	(obj:0)
_var2969_                          0.0228571884438111 	(obj:0)
_var2972_                          0.0175489472133742 	(obj:0)
_var2976_                          0.0767319977094474 	(obj:0)
_var2982_                          0.0756462731193774 	(obj:0)
_var2984_                           0.180354197349589 	(obj:0)
_var2987_                           0.204489577441479 	(obj:0)
_var2989_                          0.0384525125802022 	(obj:0)
_var2993_                           0.428626921001629 	(obj:0)
_var2995_                          0.0661968182713351 	(obj:0)
_var2996_                           0.227686860292071 	(obj:0)
_var2997_                          0.0289975872676013 	(obj:0)
_var2998_                           0.027213624853028 	(obj:0)
_var3000_                           0.311222667792241 	(obj:0)
_var3003_                             0.1383609373084 	(obj:0)
_var3006_                          0.0440555173944043 	(obj:0)
_var3009_                           0.195910914843389 	(obj:0)
_var3010_                          0.0490630306304843 	(obj:0)
_var3011_                          0.0213664909753152 	(obj:0)
_var3015_                           0.229167340908652 	(obj:0)
_var3017_                          0.0309889542122698 	(obj:0)
_var3019_                           0.165472958536649 	(obj:0)
_var3020_                          0.0420650277268466 	(obj:0)
_var3024_                           0.212418045922152 	(obj:0)
_var3025_                           0.100976716160707 	(obj:0)
_var3026_                           0.156278774803064 	(obj:0)
_var3027_                           0.176178825789072 	(obj:0)
_var3029_                           0.308741122150794 	(obj:0)
_var3030_                          0.0558237283153091 	(obj:0)
_var3031_                          0.0104790945769338 	(obj:0)
_var3032_                          0.0566214567884467 	(obj:0)
_var3035_                           0.130743501870622 	(obj:0)
_var3037_                         0.00588732959921365 	(obj:0)
_var3040_                           0.187095635080275 	(obj:0)
_var3041_                           0.249072298227262 	(obj:0)
_var3042_                           0.153039161877747 	(obj:0)
_var3043_                          0.0389056263681084 	(obj:0)
_var3046_                          0.0157281019829245 	(obj:0)
_var3047_                          0.0579072677995663 	(obj:0)
_var3048_                          0.0186336243382177 	(obj:0)
_var3050_                           0.103195891979325 	(obj:0)
_var3051_                           0.051529049946524 	(obj:0)
_var3052_                          0.0435111994560552 	(obj:0)
_var3054_                           0.109427132069512 	(obj:0)
_var3055_                           0.122109147550752 	(obj:0)
_var3056_                            0.11591056098496 	(obj:0)
_var3058_                           0.117953894956024 	(obj:0)
_var3059_                           0.135958076484324 	(obj:0)
_var3060_                           0.158488295480581 	(obj:0)
_var3062_                           0.110823237650577 	(obj:0)
_var3064_                           0.105158017837131 	(obj:0)
_var3066_                           0.160727912645402 	(obj:0)
_var3071_                          0.0809825888988097 	(obj:0)
_var3074_                           0.104332257871166 	(obj:0)
_var3075_                           0.144184222545945 	(obj:0)
_var3076_                          0.0968518337510184 	(obj:0)
_var3077_                          0.0652839293015408 	(obj:0)
_var3079_                           0.124990736854476 	(obj:0)
_var3083_                          0.0436139620906478 	(obj:0)
_var3084_                          0.0938762763860481 	(obj:0)
_var3086_                           0.079851084401226 	(obj:0)
_var3087_                           0.132309519417561 	(obj:0)
_var3088_                          0.0756964606036054 	(obj:0)
_var3090_                            0.23536738690513 	(obj:0)
_var3097_                          0.0499073189928866 	(obj:0)
_var3098_                          0.0366722634573742 	(obj:0)
_var3099_                          0.0996515699542185 	(obj:0)
_var3104_                           0.078929486296383 	(obj:0)
_var3105_                           0.156672078754422 	(obj:0)
_var3106_                          0.0222181981219675 	(obj:0)
_var3108_                          0.0726371911322292 	(obj:0)
_var3109_                         0.00492059302095961 	(obj:0)
_var3110_                          0.0765498766019134 	(obj:0)
_var3111_                          0.0403963341956352 	(obj:0)
_var3112_                          0.0228383039308606 	(obj:0)
_var3113_                          0.0384105119751318 	(obj:0)
_var3114_                          0.0292275461190666 	(obj:0)
_var3115_                          0.0793258427391806 	(obj:0)
_var3117_                           0.110126833138312 	(obj:0)
_var3118_                          0.0649373970734748 	(obj:0)
_var3123_                          0.0317831889911952 	(obj:0)
_var3124_                           0.121583705478366 	(obj:0)
_var3125_                          0.0979017632242314 	(obj:0)
_var3130_                          0.0274924097365979 	(obj:0)
_var3132_                           0.105435157172465 	(obj:0)
_var3133_                          0.0150865388381917 	(obj:0)
_var3136_                          0.0821781522215044 	(obj:0)
_var3140_                          0.0915822144266937 	(obj:0)
_var3143_                           0.095627073958164 	(obj:0)
_var3144_                          0.0755435118218289 	(obj:0)
_var3146_                         0.00946058361444513 	(obj:0)
_var3155_                         0.00397616801529943 	(obj:0)
_var3157_                           0.011024398683946 	(obj:0)
